g3 1 1 0	# problem unknown
 4 1 1 0 0 	# vars, constraints, objectives, ranges, eqns
 1 1 0 0 0 0	# nonlinear constrs, objs; ccons: lin, nonlin, nd, nzlb
 0 0	# network constraints: nonlinear, linear
 2 4 2 	# nonlinear vars in constraints, objectives, both
 0 0 0 1	# linear network variables; functions; arith, flags
 0 0 0 0 0 	# discrete variables: binary, integer, nonlinear (b,c,o)
 2 4 	# nonzeros in Jacobian, obj. gradient
 0 0	# max name lengths: constraints, variables
 0 0 0 0 0	# common exprs: b,c,o,c1,o1
C0
o2
o0
o2
n-1
v0
n1
v1
O0 0
o54
19
o5
o0
o0
o2
o0
o3
n1.0
o2
n12
v3
n1
o2
o2
o2
o2
v0
o5
o0
v0
o2
o0
o2
n-1
v0
n1
v1
v3
o5
o2
n0.15915457091927682
v3
n0.5
o5
n0.013012361743656475
o0
v3
n-1
o44
o0
v3
o16
o3
o2
o2
o0
v0
o2
o0
o2
n-1
v0
n1
v1
n0.1
v3
n7.658
o2
o0
o3
n1.0
o2
n12
v2
n1
o2
o2
o2
o2
o0
o2
n-1
v0
n1
o5
o3
o0
v0
o2
o0
o2
n-1
v0
n1
v1
v1
v2
o5
o2
n0.15915457091927682
v2
n0.5
o5
n0.013058239749281797
o0
v2
n-1
o44
o0
v2
o16
o3
o2
o2
o0
v0
o2
o0
o2
n-1
v0
n1
v1
n0.1
v2
o2
n7.658
v1
n-0.00189
n2
o5
o0
o0
o2
o0
o3
n1.0
o2
n12
v3
n1
o2
o2
o2
o2
v0
o5
o0
v0
o2
o0
o2
n-1
v0
n1
v1
v3
o5
o2
n0.15915457091927682
v3
n0.5
o5
n0.13012361743656475
o0
v3
n-1
o44
o0
v3
o16
o3
o2
o0
v0
o2
o0
o2
n-1
v0
n1
v1
v3
n7.658
o2
o0
o3
n1.0
o2
n12
v2
n1
o2
o2
o2
o2
o0
o2
n-1
v0
n1
o5
o3
o0
v0
o2
o0
o2
n-1
v0
n1
v1
v1
v2
o5
o2
n0.15915457091927682
v2
n0.5
o5
n0.13058239749281797
o0
v2
n-1
o44
o0
v2
o16
o3
o2
o0
v0
o2
o0
o2
n-1
v0
n1
v1
v2
o2
n7.658
v1
n-0.1038
n2
o5
o0
o0
o2
o0
o3
n1.0
o2
n12
v3
n1
o2
o2
o2
o2
v0
o5
o0
v0
o2
o0
o2
n-1
v0
n1
v1
v3
o5
o2
n0.15915457091927682
v3
n0.5
o5
n0.2602472348731295
o0
v3
n-1
o44
o0
v3
o16
o3
o2
o2
o0
v0
o2
o0
o2
n-1
v0
n1
v1
n2
v3
n7.658
o2
o0
o3
n1.0
o2
n12
v2
n1
o2
o2
o2
o2
o0
o2
n-1
v0
n1
o5
o3
o0
v0
o2
o0
o2
n-1
v0
n1
v1
v1
v2
o5
o2
n0.15915457091927682
v2
n0.5
o5
n0.26116479498563594
o0
v2
n-1
o44
o0
v2
o16
o3
o2
o2
o0
v0
o2
o0
o2
n-1
v0
n1
v1
n2
v2
o2
n7.658
v1
n-0.268
n2
o5
o0
o0
o2
o0
o3
n1.0
o2
n12
v3
n1
o2
o2
o2
o2
v0
o5
o0
v0
o2
o0
o2
n-1
v0
n1
v1
v3
o5
o2
n0.15915457091927682
v3
n0.5
o5
n0.3903708523096942
o0
v3
n-1
o44
o0
v3
o16
o3
o2
o2
o0
v0
o2
o0
o2
n-1
v0
n1
v1
n3
v3
n7.658
o2
o0
o3
n1.0
o2
n12
v2
n1
o2
o2
o2
o2
o0
o2
n-1
v0
n1
o5
o3
o0
v0
o2
o0
o2
n-1
v0
n1
v1
v1
v2
o5
o2
n0.15915457091927682
v2
n0.5
o5
n0.3917471924784539
o0
v2
n-1
o44
o0
v2
o16
o3
o2
o2
o0
v0
o2
o0
o2
n-1
v0
n1
v1
n3
v2
o2
n7.658
v1
n-0.506
n2
o5
o0
o0
o2
o0
o3
n1.0
o2
n12
v3
n1
o2
o2
o2
o2
v0
o5
o0
v0
o2
o0
o2
n-1
v0
n1
v1
v3
o5
o2
n0.15915457091927682
v3
n0.5
o5
n0.520494469746259
o0
v3
n-1
o44
o0
v3
o16
o3
o2
o2
o0
v0
o2
o0
o2
n-1
v0
n1
v1
n4
v3
n7.658
o2
o0
o3
n1.0
o2
n12
v2
n1
o2
o2
o2
o2
o0
o2
n-1
v0
n1
o5
o3
o0
v0
o2
o0
o2
n-1
v0
n1
v1
v1
v2
o5
o2
n0.15915457091927682
v2
n0.5
o5
n0.5223295899712719
o0
v2
n-1
o44
o0
v2
o16
o3
o2
o2
o0
v0
o2
o0
o2
n-1
v0
n1
v1
n4
v2
o2
n7.658
v1
n-0.577
n2
o5
o0
o0
o2
o0
o3
n1.0
o2
n12
v3
n1
o2
o2
o2
o2
v0
o5
o0
v0
o2
o0
o2
n-1
v0
n1
v1
v3
o5
o2
n0.15915457091927682
v3
n0.5
o5
n0.6506180871828238
o0
v3
n-1
o44
o0
v3
o16
o3
o2
o2
o0
v0
o2
o0
o2
n-1
v0
n1
v1
n5
v3
n7.658
o2
o0
o3
n1.0
o2
n12
v2
n1
o2
o2
o2
o2
o0
o2
n-1
v0
n1
o5
o3
o0
v0
o2
o0
o2
n-1
v0
n1
v1
v1
v2
o5
o2
n0.15915457091927682
v2
n0.5
o5
n0.6529119874640898
o0
v2
n-1
o44
o0
v2
o16
o3
o2
o2
o0
v0
o2
o0
o2
n-1
v0
n1
v1
n5
v2
o2
n7.658
v1
n-0.604
n2
o5
o0
o0
o2
o0
o3
n1.0
o2
n12
v3
n1
o2
o2
o2
o2
v0
o5
o0
v0
o2
o0
o2
n-1
v0
n1
v1
v3
o5
o2
n0.15915457091927682
v3
n0.5
o5
n0.7807417046193884
o0
v3
n-1
o44
o0
v3
o16
o3
o2
o2
o0
v0
o2
o0
o2
n-1
v0
n1
v1
n6
v3
n7.658
o2
o0
o3
n1.0
o2
n12
v2
n1
o2
o2
o2
o2
o0
o2
n-1
v0
n1
o5
o3
o0
v0
o2
o0
o2
n-1
v0
n1
v1
v1
v2
o5
o2
n0.15915457091927682
v2
n0.5
o5
n0.7834943849569078
o0
v2
n-1
o44
o0
v2
o16
o3
o2
o2
o0
v0
o2
o0
o2
n-1
v0
n1
v1
n6
v2
o2
n7.658
v1
n-0.725
n2
o5
o0
o0
o2
o0
o3
n1.0
o2
n12
v3
n1
o2
o2
o2
o2
v0
o5
o0
v0
o2
o0
o2
n-1
v0
n1
v1
v3
o5
o2
n0.15915457091927682
v3
n0.5
o5
n0.9108653220559532
o0
v3
n-1
o44
o0
v3
o16
o3
o2
o2
o0
v0
o2
o0
o2
n-1
v0
n1
v1
n7
v3
n7.658
o2
o0
o3
n1.0
o2
n12
v2
n1
o2
o2
o2
o2
o0
o2
n-1
v0
n1
o5
o3
o0
v0
o2
o0
o2
n-1
v0
n1
v1
v1
v2
o5
o2
n0.15915457091927682
v2
n0.5
o5
n0.9140767824497258
o0
v2
n-1
o44
o0
v2
o16
o3
o2
o2
o0
v0
o2
o0
o2
n-1
v0
n1
v1
n7
v2
o2
n7.658
v1
n-0.898
n2
o5
o0
o0
o2
o0
o3
n1.0
o2
n12
v3
n1
o2
o2
o2
o2
v0
o5
o0
v0
o2
o0
o2
n-1
v0
n1
v1
v3
o5
o2
n0.15915457091927682
v3
n0.5
o5
n1.040988939492518
o0
v3
n-1
o44
o0
v3
o16
o3
o2
o2
o0
v0
o2
o0
o2
n-1
v0
n1
v1
n8
v3
n7.658
o2
o0
o3
n1.0
o2
n12
v2
n1
o2
o2
o2
o2
o0
o2
n-1
v0
n1
o5
o3
o0
v0
o2
o0
o2
n-1
v0
n1
v1
v1
v2
o5
o2
n0.15915457091927682
v2
n0.5
o5
n1.0446591799425438
o0
v2
n-1
o44
o0
v2
o16
o3
o2
o2
o0
v0
o2
o0
o2
n-1
v0
n1
v1
n8
v2
o2
n7.658
v1
n-0.947
n2
o5
o0
o0
o2
o0
o3
n1.0
o2
n12
v3
n1
o2
o2
o2
o2
v0
o5
o0
v0
o2
o0
o2
n-1
v0
n1
v1
v3
o5
o2
n0.15915457091927682
v3
n0.5
o5
n1.1711125569290828
o0
v3
n-1
o44
o0
v3
o16
o3
o2
o2
o0
v0
o2
o0
o2
n-1
v0
n1
v1
n9
v3
n7.658
o2
o0
o3
n1.0
o2
n12
v2
n1
o2
o2
o2
o2
o0
o2
n-1
v0
n1
o5
o3
o0
v0
o2
o0
o2
n-1
v0
n1
v1
v1
v2
o5
o2
n0.15915457091927682
v2
n0.5
o5
n1.1752415774353617
o0
v2
n-1
o44
o0
v2
o16
o3
o2
o2
o0
v0
o2
o0
o2
n-1
v0
n1
v1
n9
v2
o2
n7.658
v1
n-0.845
n2
o5
o0
o0
o2
o0
o3
n1.0
o2
n12
v3
n1
o2
o2
o2
o2
v0
o5
o0
v0
o2
o0
o2
n-1
v0
n1
v1
v3
o5
o2
n0.15915457091927682
v3
n0.5
o5
n1.3012361743656475
o0
v3
n-1
o44
o0
v3
o16
o3
o2
o2
o0
v0
o2
o0
o2
n-1
v0
n1
v1
n10
v3
n7.658
o2
o0
o3
n1.0
o2
n12
v2
n1
o2
o2
o2
o2
o0
o2
n-1
v0
n1
o5
o3
o0
v0
o2
o0
o2
n-1
v0
n1
v1
v1
v2
o5
o2
n0.15915457091927682
v2
n0.5
o5
n1.3058239749281797
o0
v2
n-1
o44
o0
v2
o16
o3
o2
o2
o0
v0
o2
o0
o2
n-1
v0
n1
v1
n10
v2
o2
n7.658
v1
n-0.702
n2
o5
o0
o0
o2
o0
o3
n1.0
o2
n12
v3
n1
o2
o2
o2
o2
v0
o5
o0
v0
o2
o0
o2
n-1
v0
n1
v1
v3
o5
o2
n0.15915457091927682
v3
n0.5
o5
n1.431359791802212
o0
v3
n-1
o44
o0
v3
o16
o3
o2
o2
o0
v0
o2
o0
o2
n-1
v0
n1
v1
n11
v3
n7.658
o2
o0
o3
n1.0
o2
n12
v2
n1
o2
o2
o2
o2
o0
o2
n-1
v0
n1
o5
o3
o0
v0
o2
o0
o2
n-1
v0
n1
v1
v1
v2
o5
o2
n0.15915457091927682
v2
n0.5
o5
n1.4364063724209977
o0
v2
n-1
o44
o0
v2
o16
o3
o2
o2
o0
v0
o2
o0
o2
n-1
v0
n1
v1
n11
v2
o2
n7.658
v1
n-0.528
n2
o5
o0
o0
o2
o0
o3
n1.0
o2
n12
v3
n1
o2
o2
o2
o2
v0
o5
o0
v0
o2
o0
o2
n-1
v0
n1
v1
v3
o5
o2
n0.15915457091927682
v3
n0.5
o5
n1.5614834092387768
o0
v3
n-1
o44
o0
v3
o16
o3
o2
o2
o0
v0
o2
o0
o2
n-1
v0
n1
v1
n12
v3
n7.658
o2
o0
o3
n1.0
o2
n12
v2
n1
o2
o2
o2
o2
o0
o2
n-1
v0
n1
o5
o3
o0
v0
o2
o0
o2
n-1
v0
n1
v1
v1
v2
o5
o2
n0.15915457091927682
v2
n0.5
o5
n1.5669887699138156
o0
v2
n-1
o44
o0
v2
o16
o3
o2
o2
o0
v0
o2
o0
o2
n-1
v0
n1
v1
n12
v2
o2
n7.658
v1
n-0.385
n2
o5
o0
o0
o2
o0
o3
n1.0
o2
n12
v3
n1
o2
o2
o2
o2
v0
o5
o0
v0
o2
o0
o2
n-1
v0
n1
v1
v3
o5
o2
n0.15915457091927682
v3
n0.5
o5
n1.6916070266753416
o0
v3
n-1
o44
o0
v3
o16
o3
o2
o2
o0
v0
o2
o0
o2
n-1
v0
n1
v1
n13
v3
n7.658
o2
o0
o3
n1.0
o2
n12
v2
n1
o2
o2
o2
o2
o0
o2
n-1
v0
n1
o5
o3
o0
v0
o2
o0
o2
n-1
v0
n1
v1
v1
v2
o5
o2
n0.15915457091927682
v2
n0.5
o5
n1.6975711674066336
o0
v2
n-1
o44
o0
v2
o16
o3
o2
o2
o0
v0
o2
o0
o2
n-1
v0
n1
v1
n13
v2
o2
n7.658
v1
n-0.257
n2
o5
o0
o0
o2
o0
o3
n1.0
o2
n12
v3
n1
o2
o2
o2
o2
v0
o5
o0
v0
o2
o0
o2
n-1
v0
n1
v1
v3
o5
o2
n0.15915457091927682
v3
n0.5
o5
n1.8217306441119063
o0
v3
n-1
o44
o0
v3
o16
o3
o2
o2
o0
v0
o2
o0
o2
n-1
v0
n1
v1
n14
v3
n7.658
o2
o0
o3
n1.0
o2
n12
v2
n1
o2
o2
o2
o2
o0
o2
n-1
v0
n1
o5
o3
o0
v0
o2
o0
o2
n-1
v0
n1
v1
v1
v2
o5
o2
n0.15915457091927682
v2
n0.5
o5
n1.8281535648994516
o0
v2
n-1
o44
o0
v2
o16
o3
o2
o2
o0
v0
o2
o0
o2
n-1
v0
n1
v1
n14
v2
o2
n7.658
v1
n-0.159
n2
o5
o0
o0
o2
o0
o3
n1.0
o2
n12
v3
n1
o2
o2
o2
o2
v0
o5
o0
v0
o2
o0
o2
n-1
v0
n1
v1
v3
o5
o2
n0.15915457091927682
v3
n0.5
o5
n1.951854261548471
o0
v3
n-1
o44
o0
v3
o16
o3
o2
o2
o0
v0
o2
o0
o2
n-1
v0
n1
v1
n15
v3
n7.658
o2
o0
o3
n1.0
o2
n12
v2
n1
o2
o2
o2
o2
o0
o2
n-1
v0
n1
o5
o3
o0
v0
o2
o0
o2
n-1
v0
n1
v1
v1
v2
o5
o2
n0.15915457091927682
v2
n0.5
o5
n1.9587359623922693
o0
v2
n-1
o44
o0
v2
o16
o3
o2
o2
o0
v0
o2
o0
o2
n-1
v0
n1
v1
n15
v2
o2
n7.658
v1
n-0.0869
n2
o5
o0
o0
o2
o0
o3
n1.0
o2
n12
v3
n1
o2
o2
o2
o2
v0
o5
o0
v0
o2
o0
o2
n-1
v0
n1
v1
v3
o5
o2
n0.15915457091927682
v3
n0.5
o5
n2.081977878985036
o0
v3
n-1
o44
o0
v3
o16
o3
o2
o2
o0
v0
o2
o0
o2
n-1
v0
n1
v1
n16
v3
n7.658
o2
o0
o3
n1.0
o2
n12
v2
n1
o2
o2
o2
o2
o0
o2
n-1
v0
n1
o5
o3
o0
v0
o2
o0
o2
n-1
v0
n1
v1
v1
v2
o5
o2
n0.15915457091927682
v2
n0.5
o5
n2.0893183598850875
o0
v2
n-1
o44
o0
v2
o16
o3
o2
o2
o0
v0
o2
o0
o2
n-1
v0
n1
v1
n16
v2
o2
n7.658
v1
n-0.0453
n2
o5
o0
o0
o2
o0
o3
n1.0
o2
n12
v3
n1
o2
o2
o2
o2
v0
o5
o0
v0
o2
o0
o2
n-1
v0
n1
v1
v3
o5
o2
n0.15915457091927682
v3
n0.5
o5
n2.212101496421601
o0
v3
n-1
o44
o0
v3
o16
o3
o2
o2
o0
v0
o2
o0
o2
n-1
v0
n1
v1
n17
v3
n7.658
o2
o0
o3
n1.0
o2
n12
v2
n1
o2
o2
o2
o2
o0
o2
n-1
v0
n1
o5
o3
o0
v0
o2
o0
o2
n-1
v0
n1
v1
v1
v2
o5
o2
n0.15915457091927682
v2
n0.5
o5
n2.2199007573779053
o0
v2
n-1
o44
o0
v2
o16
o3
o2
o2
o0
v0
o2
o0
o2
n-1
v0
n1
v1
n17
v2
o2
n7.658
v1
n-0.01509
n2
o5
o0
o0
o2
o0
o3
n1.0
o2
n12
v3
n1
o2
o2
o2
o2
v0
o5
o0
v0
o2
o0
o2
n-1
v0
n1
v1
v3
o5
o2
n0.15915457091927682
v3
n0.5
o5
n2.3422251138581656
o0
v3
n-1
o44
o0
v3
o16
o3
o2
o2
o0
v0
o2
o0
o2
n-1
v0
n1
v1
n18
v3
n7.658
o2
o0
o3
n1.0
o2
n12
v2
n1
o2
o2
o2
o2
o0
o2
n-1
v0
n1
o5
o3
o0
v0
o2
o0
o2
n-1
v0
n1
v1
v1
v2
o5
o2
n0.15915457091927682
v2
n0.5
o5
n2.3504831548707235
o0
v2
n-1
o44
o0
v2
o16
o3
o2
o2
o0
v0
o2
o0
o2
n-1
v0
n1
v1
n18
v2
o2
n7.658
v1
n-0.00189
n2
x4
0 0.04
1 2.0
2 2.0
3 4.0
r
2 0.0
b
0 1e-05 1.0
0 1e-05 100.0
0 1e-05 100.0
0 1e-05 100.0
k3
1
2
2
J0 2
0 1
1 0
G0 4
0 0
1 0
2 0
3 0
